# avogadro generated ORCA input file 
# Basic Mode
# 
! PM3 Opt
%geom Scan
B 2 4 = 1.07, 1.23, 15
B 4 11 = 1.59, 1.35, 15
end
end
* xyz -1 1
 C                  0.91704300   -0.44722700    0.00000000
 H                  1.74335100    0.26020100    0.00000000
 C                  0.91704300   -1.27268700   -1.27100400
 H                  0.91332200   -0.64236400   -2.15919400
 H                  1.81787500   -1.89387600   -1.29506600
 C                  0.91704300   -1.27268700    1.27100400
 H                  1.81787500   -1.89387600    1.29506600
 H                  0.91332200   -0.64236400    2.15919400
 H                  0.04871200   -1.93178300    1.31139300
 Br                -0.68028400    0.76089800    0.00000000
 H                  0.04871200   -1.93178300   -1.31139300
 O                  2.89891704   -3.05632382   -1.21398932
 H                  2.89891704   -3.05632382   -2.18421032
*
