# avogadro generated ORCA input file 
# Basic Mode
# 
! RHF OPT def2-SVP 

* xyz 0 1
   C       -3.37842       -1.18711        0.00000
   C       -2.30842       -1.18711        0.00000
   H       -3.73508       -0.29698        0.47471
   H       -3.73509       -2.04329        0.53352
   H       -3.73509       -1.22107       -1.00823
   H       -1.95176       -1.15316        1.00824
   H       -1.95175       -0.33094       -0.53352
   H       -1.95175       -2.07725       -0.47471
*

